Welcome to the CBC MILP Solver 
Version: 2.10.12 
Build Date: Jun 17 2025 

command line - cbc -solve -quit (default strategy 1)
Presolve 600 (0) rows, 1353 (-48) columns and 4908 (-47) elements
Perturbing problem by 0.001% of 0.17782794 - largest nonzero change 5.0794715e-05 ( 0.028563967%) - largest zero change 5.0788432e-05
0  Obj -0 Dual inf 35.557623 (200)
87  Obj 199.95575 Primal inf 140.41009 (178)
174  Obj 199.95515 Primal inf 82.928867 (161)
261  Obj 199.95493 Primal inf 48.366863 (137)
304  Obj 199.95491 Primal inf 281.8254 (177)
348  Obj 199.9549 Primal inf 57.25702 (157)
393  Obj 199.9549 Primal inf 39.836664 (151)
443  Obj 199.9549 Primal inf 10.578829 (102)
493  Obj 199.9549 Primal inf 3.8725 (56)
545  Obj 199.95489
Optimal - objective value 200
After Postsolve, objective 200, infeasibilities - dual 0 (0), primal 0 (0)
Optimal objective 200 - 545 iterations time 0.052, Presolve 0.00
Continuous objective value is 200 - 0.05 seconds
Optimal - objective value 200
Optimal - objective value 200
Presolve 414 (-186) rows, 1196 (-205) columns and 8034 (3079) elements
Perturbing problem by 0.001% of 0.17782794 - largest nonzero change 5.9580036e-06 ( 0.0033504316%) - largest zero change 5.9377574e-06
0  Obj 200.00525 Primal inf 9.0883351 (109)
32  Obj 200.00525
Optimal - objective value 200
Presolve 414 (0) rows, 1196 (0) columns and 8034 (0) elements
0  Obj 200
Optimal - objective value 200
Optimal - objective value 200
processed model has 414 rows, 1196 columns (1196 integer (1180 of which binary)) and 8034 elements
0  Obj 200
Optimal - objective value 200
Optimal - objective value 200
Cutoff increment increased from 1e-05 to 0.9999
Optimal - objective value -200
Initial state - 188 integers unsatisfied sum - 37.8521
Optimal - objective value -200
Optimal - objective value -200
0  Obj 28.470299 Dual inf 7701.4239 (506)
Perturbing problem by 0.001% of 5.4516086 - largest nonzero change 6.3991202e-05 ( 0.00083912414%) - largest zero change 0
59  Obj 24.885799 Dual inf 5839.519 (496)
117  Obj 23.034498 Dual inf 27265.418 (573)
179  Obj 22.180504 Dual inf 6264.7493 (471)
252  Obj 21.077595 Dual inf 3814.5767 (424)
313  Obj 20.466454 Dual inf 2578.8664 (317)
374  Obj 19.88865 Dual inf 7372.0718 (466)
436  Obj 19.207374 Dual inf 3139.3495 (395)
499  Obj 18.736603 Dual inf 2002.1179 (373)
558  Obj 18.474032 Dual inf 231.06068 (144)
623  Obj 18.371344 Dual inf 3.5039786 (9)
633  Obj 18.370091
633  Obj 18.37014
Optimal - objective value 18.37014
Pass   1: suminf.   26.70794 (182) obj. 199.983 iterations 633
0  Obj 16.666919 Dual inf 2657.2314 (379)
Perturbing problem by 0.001% of 5.4516086 - largest nonzero change 6.3846265e-05 ( 0.00049350214%) - largest zero change 1.0179203e-05
57  Obj 14.857952 Dual inf 3139.1188 (408)
120  Obj 13.329995 Dual inf 5440.7611 (450)
180  Obj 12.31506 Dual inf 301.71435 (121)
239  Obj 12.033144 Dual inf 86.689017 (73)
261  Obj 12.023914
261  Obj 12.023987
Optimal - objective value 12.023987
Pass   2: suminf.   22.32961 (168) obj. 199.971 iterations 261
0  Obj 10.901971 Dual inf 3269.9299 (383)
Perturbing problem by 0.001% of 5.4516086 - largest nonzero change 6.2402771e-05 ( 0.0006805227%) - largest zero change 1.8965398e-05
54  Obj 9.4048706 Dual inf 4270.9737 (430)
109  Obj 7.9569335 Dual inf 2525.3855 (323)
161  Obj 7.1819029 Dual inf 1415.9054 (247)
216  Obj 6.8171264 Dual inf 2626.1329 (323)
269  Obj 6.6163671 Dual inf 20.956488 (38)
297  Obj 6.611334
297  Obj 6.6114532
Optimal - objective value 6.6114532
Pass   3: suminf.   17.34798 (151) obj. 199.957 iterations 297
0  Obj 5.3394218 Dual inf 3494.98 (366)
Perturbing problem by 0.001% of 5.4516086 - largest nonzero change 6.4129087e-05 ( 0.0011969671%) - largest zero change 1.6213482e-05
52  Obj 4.0614935 Dual inf 9295.8035 (464)
104  Obj 0.75321368 Dual inf 10740.047 (437)
160  Obj -0.081739144 Dual inf 6016.6547 (338)
215  Obj -0.3060591 Dual inf 442.47315 (124)
278  Obj -0.34883298 Dual inf 227.01634 (128)
344  Obj -0.36923063 Dual inf 58.643485 (51)
405  Obj -0.38054896 Dual inf 0.058150292 (3)
407  Obj -0.38054898
407  Obj -0.38030165
Optimal - objective value -0.38030165
Pass   4: suminf.    7.13683 (100) obj. 199.946 iterations 407
0  Obj -5.0467183 Dual inf 20761.517 (418)
Perturbing problem by 0.001% of 5.4516086 - largest nonzero change 6.4220268e-05 ( 0.00095250485%) - largest zero change 1.9982268e-05
58  Obj -6.0279469 Dual inf 22932.503 (490)
105  Obj -6.730352 Dual inf 12468.285 (424)
162  Obj -8.4779161 Dual inf 2199.614 (281)
209  Obj -8.963835 Dual inf 5012.9036 (377)
258  Obj -8.9639839 Dual inf 2010.6526 (319)
304  Obj -8.9641808 Dual inf 207.75647 (105)
359  Obj -8.9641974
359  Obj -8.9641316
Optimal - objective value -8.9641316
Pass   5: suminf.    2.89183 (65) obj. 199.941 iterations 359
0  Obj -9.3631983 Dual inf 1369.3786 (289)
Perturbing problem by 0.001% of 5.4516086 - largest nonzero change 6.4302457e-05 ( 0.00096123407%) - largest zero change 1.9439488e-05
44  Obj -9.363343 Dual inf 1229.5892 (263)
94  Obj -9.7484747 Dual inf 135.94103 (128)
150  Obj -9.7485086 Dual inf 39.851478 (47)
204  Obj -9.7485286 Dual inf 37.0897 (39)
247  Obj -9.7488525
247  Obj -9.7487145
Optimal - objective value -9.7487145
Pass   6: suminf.    1.55850 (56) obj. 199.941 iterations 247
0  Obj -10.753314 Dual inf 12308.238 (470)
Perturbing problem by 0.001% of 5.4516086 - largest nonzero change 6.394306e-05 ( 0.00096540949%) - largest zero change 1.9969363e-05
21  Obj -10.753397
21  Obj -10.753314
Optimal - objective value -10.753314
Pass   7: suminf.    1.55850 (56) obj. 199.941 iterations 21
0  Obj -0.72345265 Dual inf 4176.4553 (401)
Perturbing problem by 0.001% of 5.4516086 - largest nonzero change 6.3974959e-05 ( 0.00096589109%) - largest zero change 1.9648931e-05
46  Obj -0.7236785 Dual inf 4994.1043 (443)
90  Obj -0.72380675 Dual inf 633.42774 (234)
138  Obj -2.2465295 Dual inf 881.24486 (243)
185  Obj -2.2465816 Dual inf 583.06673 (229)
232  Obj -11.789638 Dual inf 10.27659 (23)
245  Obj -11.789638
245  Obj -11.789438
Optimal - objective value -11.789438
Pass   8: suminf.    0.04900 (47) obj. 190.951 iterations 245
0  Obj -1.0191508 Dual inf 0.40535097 (14)
Perturbing problem by 0.001% of 5.4516086 - largest nonzero change 6.369851e-05 ( 0.00096171728%) - largest zero change 1.9744772e-05
11  Obj -11.404294
11  Obj -11.404294
Optimal - objective value -11.404294
Pass   9: suminf.    0.03700 (37) obj. 180.963 iterations 11
0  Obj 14.845406 Dual inf 0.81049674 (28)
Perturbing problem by 0.001% of 5.4516086 - largest nonzero change 6.4293108e-05 ( 0.0009706945%) - largest zero change 1.9629125e-05
25  Obj -10.279444
25  Obj -10.279444
Optimal - objective value -10.279444
Pass  10: suminf.    0.01300 (13) obj. 156.987 iterations 25
Solution found of 144
Cleaned solution of 144
0  Obj -200
Optimal - objective value -200
Before mini branch and bound, 802 integers at bound fixed and 0 continuous of which 8 were internal integer and 0 internal continuous
Presolve 398 (-16) rows, 394 (-802) columns and 2895 (-5139) elements
Presolve 249 (-165) rows, 198 (-998) columns and 955 (-7079) elements
Full problem 414 rows 1196 columns, reduced to 398 rows 394 columns - 37 fixed gives 249, 198 - ok now
117 variables fixed
Presolve 242 (-172) rows, 194 (-1002) columns and 946 (-7088) elements
Presolve 226 (-16) rows, 179 (-15) columns and 892 (-54) elements
processed model has 226 rows, 179 columns (179 integer (177 of which binary)) and 892 elements
Full problem 414 rows 1196 columns, reduced to 226 rows 179 columns
Integer solution of 154 found by rounding after 177 iterations and 0 nodes (0.51 seconds)
32 added rows had average density of 2
At root node, 32 cuts changed objective from 183.965 to 161.99 in 6 passes
Cut generator 0 (Probing) - 359 row cuts average 2.0 elements, 8 column cuts (8 active)
After 0 nodes, 1 on tree, 154 best solution, best possible 161.99 (0.52 seconds)
Integer solution of 155 found by rounding after 2244 iterations and 186 nodes (0.75 seconds)
Exiting on maximum nodes
Partial search - best objective 155 (best possible 159.993), took 2423 iterations and 200 nodes (0.77 seconds)
Strong branching done 370 times (1823 iterations), fathomed 13 nodes and fixed 15 variables
Maximum depth 10, 359 variables fixed on reduced cost
Presolve 0 (-414) rows, 0 (-1196) columns and 0 (-8034) elements
After Postsolve, objective -155, infeasibilities - dual 0 (0), primal 0 (0)
Mini branch and bound improved solution from 144 to 155 (0.77 seconds)
Round again with cutoff of 160.4
Optimal - objective value -200
Optimal - objective value -200
0  Obj 18.37014
Optimal - objective value 18.37014
Pass  11: suminf.   26.70794 (182) obj. 199.983 iterations 0
0  Obj 16.666919 Dual inf 2657.2314 (379)
Perturbing problem by 0.001% of 6.0870044 - largest nonzero change 7.0293465e-05 ( 0.0011500974%) - largest zero change 1.096862e-05
54  Obj 15.144724 Dual inf 4849.8752 (454)
109  Obj 14.292068 Dual inf 10028.452 (489)
165  Obj 13.124476 Dual inf 1891.485 (310)
220  Obj 12.668161 Dual inf 1940.0454 (303)
275  Obj 12.261432 Dual inf 1824.8907 (330)
329  Obj 12.053128 Dual inf 119.42951 (42)
376  Obj 12.023909
376  Obj 12.023987
Optimal - objective value 12.023987
Pass  12: suminf.   22.32961 (168) obj. 199.971 iterations 376
0  Obj 10.901971 Dual inf 2823.8961 (375)
Perturbing problem by 0.001% of 6.0870044 - largest nonzero change 7.0792276e-05 ( 0.0009658505%) - largest zero change 1.1312488e-05
58  Obj 9.6382745 Dual inf 6681.7509 (429)
113  Obj 8.2705797 Dual inf 34113.648 (523)
166  Obj 7.0989561 Dual inf 1757.2965 (298)
218  Obj 6.7488042 Dual inf 279.63075 (137)
275  Obj 6.6168876 Dual inf 18.817843 (38)
306  Obj 6.6113887
306  Obj 6.6114532
Optimal - objective value 6.6114532
Pass  13: suminf.   17.34798 (151) obj. 199.957 iterations 306
0  Obj 5.3394218 Dual inf 4044.2217 (381)
Perturbing problem by 0.001% of 6.0870044 - largest nonzero change 7.0407502e-05 ( 0.00098456213%) - largest zero change 1.8630813e-05
53  Obj 4.0958769 Dual inf 12016.743 (448)
106  Obj 2.8771759 Dual inf 26561.549 (498)
159  Obj 0.76987689 Dual inf 13393.619 (432)
223  Obj -0.17957006 Dual inf 1530.2885 (216)
287  Obj -0.3270932 Dual inf 1067.0195 (197)
345  Obj -0.36306659 Dual inf 38.308432 (32)
396  Obj -0.38057395
396  Obj -0.38030165
Optimal - objective value -0.38030165
Pass  14: suminf.    7.13683 (100) obj. 199.946 iterations 396
0  Obj -5.0419183 Dual inf 28111.484 (426)
Perturbing problem by 0.001% of 6.0870044 - largest nonzero change 7.0331923e-05 ( 0.00097874662%) - largest zero change 1.9420226e-05
51  Obj -6.0214878 Dual inf 11242.226 (438)
101  Obj -6.7244709 Dual inf 3361.5812 (314)
158  Obj -7.2602752 Dual inf 7951.145 (371)
205  Obj -7.2604265 Dual inf 1372.7548 (280)
260  Obj -7.2604446 Dual inf 23.092651 (39)
284  Obj -7.2604463
284  Obj -7.2603805
Optimal - objective value -7.2603805
Pass  15: suminf.    4.22017 (67) obj. 199.946 iterations 284
0  Obj -8.0619138 Dual inf 4438.9041 (384)
Perturbing problem by 0.001% of 6.0870044 - largest nonzero change 7.0534678e-05 ( 0.001294984%) - largest zero change 1.9455161e-05
46  Obj -9.2608052 Primal inf 2.3659742e-06 (2) Dual inf 2.9049377e+12 (469)
96  Obj -9.2610972 Dual inf 17883.153 (447)
141  Obj -9.2618686 Dual inf 15836.161 (433)
183  Obj -9.7800852 Dual inf 542.81945 (221)
231  Obj -9.7801458 Dual inf 144.89038 (106)
255  Obj -9.8124684
255  Obj -9.8119751
Optimal - objective value -9.8119751
Pass  16: suminf.    2.55400 (56) obj. 199.446 iterations 255
No solution found this major pass
After 0.98 seconds - Feasibility pump exiting with objective of 155 - took 0.88 seconds
Optimal - objective value -155
Integer solution of 155 found by feasibility pump after 0 iterations and 0 nodes (0.98 seconds)
Optimal - objective value -200
Optimal - objective value -200
Exiting on maximum time
Partial search - best objective 155 (best possible 200), took 0 iterations and 0 nodes (0.99 seconds)
Maximum depth 0, 0 variables fixed on reduced cost
Optimal - objective value -155
0  Obj -155 Primal inf 597.54266 (199) Dual inf 2646.0706 (99)
65  Obj -155 Primal inf 61.27731 (165) Dual inf 227.22072 (69)
115  Obj -155 Primal inf 7.9999996 (4) Dual inf 67.12336 (45)
122  Obj -155
Optimal - objective value -155
Cuts at root node changed objective from 200 to 200
Probing was tried 0 times and created 0 cuts of which 0 were active after adding rounds of cuts (0.000 seconds)
Gomory was tried 0 times and created 0 cuts of which 0 were active after adding rounds of cuts (0.000 seconds)
Knapsack was tried 0 times and created 0 cuts of which 0 were active after adding rounds of cuts (0.000 seconds)
Clique was tried 0 times and created 0 cuts of which 0 were active after adding rounds of cuts (0.000 seconds)
MixedIntegerRounding2 was tried 0 times and created 0 cuts of which 0 were active after adding rounds of cuts (0.000 seconds)
FlowCover was tried 0 times and created 0 cuts of which 0 were active after adding rounds of cuts (0.000 seconds)
TwoMirCuts was tried 0 times and created 0 cuts of which 0 were active after adding rounds of cuts (0.000 seconds)
ZeroHalf was tried 0 times and created 0 cuts of which 0 were active after adding rounds of cuts (0.000 seconds)
Optimal - objective value 155
Optimal - objective value 155
Presolve 0 (-600) rows, 0 (-1401) columns and 0 (-4955) elements
Crash put 0 variables in basis, 0 dual infeasibilities
Optimal - objective value 155
After Postsolve, objective 155, infeasibilities - dual 0 (0), primal 0 (0)
Optimal - objective value 155
Perturbing problem by 0.001% of 1e-08 - largest nonzero change 0 ( 0%) - largest zero change 0
0  Obj 158 Primal inf 81.378087 (4)
Optimal - objective value 155
Presolve 0 (-600) rows, 0 (-1401) columns and 0 (-4955) elements
Optimal - objective value 155
After Postsolve, objective 155, infeasibilities - dual 0 (0), primal 0 (0)

Result - Stopped on time limit

Objective value:                155.00000000
Upper bound:                    200.000
Gap:                            -0.23
Enumerated nodes:               0
Total iterations:               0
Time (CPU seconds):             1.02
Time (Wallclock seconds):       1.02

Total time (CPU seconds):       1.03   (Wallclock seconds):       1.03

